sat
(error "line 9273 column 73: Sorts (Array (Array Int CompositionState-Left) Int Return_Left_gate_GBLG) and Return_Left_gate_GBLG are incompatible")
unknown
unknown
unknown
unknown
unknown
unknown
unknown
unknown
unknown
unknown
unknown
unknown
